% File represents an instance of a Composite Structure problem to be solved by a CP framework
% Created on 2025-03-26 10:41:27.045
T = 56;
n = 16;
m = 24;
edges = [(1, 2),
(6, 5),
(9, 10),
(13, 14),
(3, 2),
(6, 7),
(11, 10),
(15, 14),
(4, 3),
(8, 7),
(12, 11),
(15, 16),
(1, 5),
(9, 5),
(13, 9),
(6, 2),
(6, 10),
(14, 10),
(3, 7),
(11, 7),
(15, 11),
(4, 8),
(12, 8),
(12, 16)];
counts = [|4, 20, 4, 22,
|4, 18, 4, 18,
|4, 20, 4, 20,
|4, 20, 4, 24,
|4, 20, 4, 18,
|4, 22, 4, 18,
|4, 20, 4, 18,
|4, 20, 4, 22,
|4, 22, 4, 22,
|4, 22, 4, 16,
|4, 24, 4, 18,
|4, 24, 4, 24,
|4, 24, 4, 22,
|4, 24, 4, 18,
|4, 24, 4, 20,
|4, 22, 4, 20|];
